x = 18;
y = 16;
c = 59;
n = 27;

p = [79  82  26  99  99  52  25  41  62  86  84  27  21  16  20  50  52  90  63  10  30  10  94  35  51  28  59];
w = [1  2  6  1  7  5  1  9  5  1  1  9  1  5  3  10  7  8  9  2  10  3  4  7  8  2  1];
s = [16  7  16  16  16  7  16  13  10  4  11  4  16  9  13  6  5  1  16  10  4  16  3  7  3  11  8];
